35 35
22
3 3 0 32
3 4 24 12
3 5 28 7
3 6 7 17
3 7 28 0
3 8 7 0
3 9 7 8
3 10 0 22
3 12 7 23
3 19 24 16
3 22 4 0
4 3 27 12
4 4 31 0
4 5 0 0
4 6 3 22
4 7 3 28
4 8 31 27
4 12 24 0
4 17 0 5
4 20 27 15
4 23 31 4
14 35 10 0
